<number of tasks>
50

<cycle time>
1000

<order strength>
0.204


<task times>
1 247
2 326
3 372
4 463
5 596
6 582
7 535
8 328
9 512
10 455
11 276
12 384
13 379
14 321
15 417
16 364
17 385
18 346
19 581
20 410
21 426
22 389
23 379
24 732
25 467
26 455
27 627
28 509
29 758
30 344
31 448
32 458
33 550
34 368
35 688
36 551
37 515
38 617
39 367
40 494
41 530
42 504
43 533
44 281
45 530
46 520
47 430
48 537
49 580
50 448

<precedence relations>
1,14
2,14
3,14
4,14
5,10
6,11
6,13
7,9
8,12
9,14
10,15
11,16
11,17
12,18
13,19
14,20
14,21
14,22
14,23
14,24
14,27
15,25
16,26
18,27
19,28
20,29
20,30
23,36
24,35
25,31
26,32
27,33
27,34
29,37
30,38
32,39
35,40
36,41
37,42
38,43
39,44
39,46
39,48
40,45
41,47
44,50
46,49

<end>
